11
2147483647 74 22 82 6 77 57 62 20 87 70 
74 2147483647 28 91 59 73 28 31 83 49 92 
22 28 2147483647 25 57 51 94 66 91 65 66 
82 91 25 2147483647 53 63 16 59 39 50 33 
6 59 57 53 2147483647 19 56 64 48 6 42 
77 73 51 63 19 2147483647 15 98 98 64 99 
57 28 94 16 56 15 2147483647 72 86 95 80 
62 31 66 59 64 98 72 2147483647 70 61 81 
20 83 91 39 48 98 86 70 2147483647 63 12 
87 49 65 50 6 64 95 61 63 2147483647 78 
70 92 66 33 42 99 80 81 12 78 2147483647 
